c strEdges: 125  randomEdges: 504 
c degrees:  1  2 
c girth: Inf max: -43.604516  
c Hgirth mixed MAXCUT instance
c generated from an undirected graph
c to solve unweighted MaxCut
p cnf 140 1258
65 84 0
-65 -84 0
65 106 0
-65 -106 0
62 106 0
-62 -106 0
62 129 0
-62 -129 0
100 63 0
-100 -63 0
100 137 0
-100 -137 0
32 6 0
-32 -6 0
32 90 0
-32 -90 0
9 92 0
-9 -92 0
107 45 0
-107 -45 0
107 35 0
-107 -35 0
135 41 0
-135 -41 0
135 15 0
-135 -15 0
60 89 0
-60 -89 0
59 123 0
-59 -123 0
5 30 0
-5 -30 0
140 76 0
-140 -76 0
140 53 0
-140 -53 0
44 113 0
-44 -113 0
44 12 0
-44 -12 0
37 24 0
-37 -24 0
37 27 0
-37 -27 0
109 97 0
-109 -97 0
109 117 0
-109 -117 0
52 126 0
-52 -126 0
52 38 0
-52 -38 0
110 108 0
-110 -108 0
110 63 0
-110 -63 0
21 112 0
-21 -112 0
21 30 0
-21 -30 0
69 102 0
-69 -102 0
69 46 0
-69 -46 0
16 53 0
-16 -53 0
16 91 0
-16 -91 0
134 115 0
-134 -115 0
134 89 0
-134 -89 0
133 78 0
-133 -78 0
133 84 0
-133 -84 0
67 80 0
-67 -80 0
67 25 0
-67 -25 0
93 95 0
-93 -95 0
125 43 0
-125 -43 0
68 42 0
-68 -42 0
68 78 0
-68 -78 0
75 54 0
-75 -54 0
75 114 0
-75 -114 0
29 118 0
-29 -118 0
121 7 0
-121 -7 0
20 77 0
-20 -77 0
20 43 0
-20 -43 0
51 22 0
-51 -22 0
51 14 0
-51 -14 0
103 99 0
-103 -99 0
127 2 0
-127 -2 0
96 88 0
-96 -88 0
96 113 0
-96 -113 0
83 120 0
-83 -120 0
83 112 0
-83 -112 0
72 31 0
-72 -31 0
72 88 0
-72 -88 0
104 38 0
-104 -38 0
104 123 0
-104 -123 0
132 8 0
-132 -8 0
132 74 0
-132 -74 0
10 117 0
-10 -117 0
10 64 0
-10 -64 0
87 17 0
-87 -17 0
1 119 0
-1 -119 0
1 42 0
-1 -42 0
66 90 0
-66 -90 0
66 33 0
-66 -33 0
101 91 0
-101 -91 0
101 131 0
-101 -131 0
50 48 0
-50 -48 0
50 86 0
-50 -86 0
73 11 0
-73 -11 0
73 97 0
-73 -97 0
39 111 0
-39 -111 0
39 95 0
-39 -95 0
130 61 0
-130 -61 0
130 79 0
-130 -79 0
40 12 0
-40 -12 0
82 86 0
-82 -86 0
82 76 0
-82 -76 0
136 26 0
-136 -26 0
136 111 0
-136 -111 0
71 70 0
-71 -70 0
124 137 0
-124 -137 0
124 118 0
-124 -118 0
122 34 0
-122 -34 0
122 81 0
-122 -81 0
18 36 0
-18 -36 0
18 55 0
-18 -55 0
19 79 0
-19 -79 0
19 77 0
-19 -77 0
23 114 0
-23 -114 0
23 99 0
-23 -99 0
47 14 0
-47 -14 0
47 2 0
-47 -2 0
85 74 0
-85 -74 0
85 6 0
-85 -6 0
57 81 0
-57 -81 0
57 45 0
-57 -45 0
116 64 0
-116 -64 0
116 7 0
-116 -7 0
28 129 0
-28 -129 0
28 120 0
-28 -120 0
58 33 0
-58 -33 0
58 108 0
-58 -108 0
98 131 0
-98 -131 0
98 34 0
-98 -34 0
4 15 0
-4 -15 0
56 3 0
-56 -3 0
56 119 0
-56 -119 0
128 27 0
-128 -27 0
128 22 0
-128 -22 0
94 46 0
-94 -46 0
94 115 0
-94 -115 0
13 49 0
-13 -49 0
13 11 0
-13 -11 0
105 35 0
-105 -35 0
105 102 0
-105 -102 0
139 55 0
-139 -55 0
138 25 0
-138 -25 0
138 24 0
-138 -24 0
44 118 0
-44 -118 0
66 115 0
-66 -115 0
122 113 0
-122 -113 0
110 84 0
-110 -84 0
44 69 0
-44 -69 0
44 119 0
-44 -119 0
67 38 0
-67 -38 0
72 122 0
-72 -122 0
78 27 0
-78 -27 0
75 48 0
-75 -48 0
102 34 0
-102 -34 0
98 11 0
-98 -11 0
128 61 0
-128 -61 0
37 91 0
-37 -91 0
109 120 0
-109 -120 0
1 4 0
-1 -4 0
68 89 0
-68 -89 0
56 102 0
-56 -102 0
94 89 0
-94 -89 0
107 63 0
-107 -63 0
95 117 0
-95 -117 0
82 41 0
-82 -41 0
134 35 0
-134 -35 0
83 98 0
-83 -98 0
5 98 0
-5 -98 0
28 137 0
-28 -137 0
20 102 0
-20 -102 0
104 136 0
-104 -136 0
93 82 0
-93 -82 0
121 114 0
-121 -114 0
10 38 0
-10 -38 0
138 12 0
-138 -12 0
57 15 0
-57 -15 0
19 36 0
-19 -36 0
130 123 0
-130 -123 0
20 2 0
-20 -2 0
97 54 0
-97 -54 0
126 12 0
-126 -12 0
51 124 0
-51 -124 0
108 61 0
-108 -61 0
32 92 0
-32 -92 0
127 80 0
-127 -80 0
52 124 0
-52 -124 0
72 63 0
-72 -63 0
103 106 0
-103 -106 0
82 22 0
-82 -22 0
134 111 0
-134 -111 0
48 114 0
-48 -114 0
110 89 0
-110 -89 0
72 43 0
-72 -43 0
44 28 0
-44 -28 0
47 63 0
-47 -63 0
13 86 0
-13 -86 0
103 87 0
-103 -87 0
90 3 0
-90 -3 0
4 53 0
-4 -53 0
117 61 0
-117 -61 0
59 36 0
-59 -36 0
72 90 0
-72 -90 0
89 99 0
-89 -99 0
70 27 0
-70 -27 0
98 84 0
-98 -84 0
96 122 0
-96 -122 0
1 98 0
-1 -98 0
140 11 0
-140 -11 0
130 139 0
-130 -139 0
87 48 0
-87 -48 0
10 54 0
-10 -54 0
56 95 0
-56 -95 0
52 20 0
-52 -20 0
135 12 0
-135 -12 0
5 46 0
-5 -46 0
61 129 0
-61 -129 0
65 19 0
-65 -19 0
39 36 0
-39 -36 0
3 27 0
-3 -27 0
130 91 0
-130 -91 0
60 47 0
-60 -47 0
9 122 0
-9 -122 0
20 104 0
-20 -104 0
78 7 0
-78 -7 0
130 81 0
-130 -81 0
100 37 0
-100 -37 0
10 79 0
-10 -79 0
119 49 0
-119 -49 0
59 68 0
-59 -68 0
65 100 0
-65 -100 0
62 116 0
-62 -116 0
23 117 0
-23 -117 0
65 133 0
-65 -133 0
97 31 0
-97 -31 0
50 11 0
-50 -11 0
71 26 0
-71 -26 0
98 13 0
-98 -13 0
96 10 0
-96 -10 0
32 19 0
-32 -19 0
93 122 0
-93 -122 0
104 33 0
-104 -33 0
111 27 0
-111 -27 0
103 57 0
-103 -57 0
103 10 0
-103 -10 0
68 123 0
-68 -123 0
16 46 0
-16 -46 0
95 3 0
-95 -3 0
32 133 0
-32 -133 0
124 138 0
-124 -138 0
125 28 0
-125 -28 0
93 79 0
-93 -79 0
10 25 0
-10 -25 0
65 47 0
-65 -47 0
16 33 0
-16 -33 0
134 75 0
-134 -75 0
60 118 0
-60 -118 0
103 55 0
-103 -55 0
115 114 0
-115 -114 0
133 95 0
-133 -95 0
24 43 0
-24 -43 0
67 34 0
-67 -34 0
28 4 0
-28 -4 0
136 94 0
-136 -94 0
13 27 0
-13 -27 0
127 84 0
-127 -84 0
109 108 0
-109 -108 0
60 64 0
-60 -64 0
56 17 0
-56 -17 0
68 103 0
-68 -103 0
127 101 0
-127 -101 0
36 129 0
-36 -129 0
96 98 0
-96 -98 0
130 89 0
-130 -89 0
41 55 0
-41 -55 0
129 27 0
-129 -27 0
128 86 0
-128 -86 0
58 86 0
-58 -86 0
134 71 0
-134 -71 0
5 130 0
-5 -130 0
42 86 0
-42 -86 0
57 14 0
-57 -14 0
18 35 0
-18 -35 0
21 4 0
-21 -4 0
39 48 0
-39 -48 0
88 17 0
-88 -17 0
139 81 0
-139 -81 0
96 11 0
-96 -11 0
104 31 0
-104 -31 0
19 102 0
-19 -102 0
101 23 0
-101 -23 0
41 123 0
-41 -123 0
30 77 0
-30 -77 0
117 11 0
-117 -11 0
23 137 0
-23 -137 0
37 90 0
-37 -90 0
29 70 0
-29 -70 0
97 12 0
-97 -12 0
133 51 0
-133 -51 0
2 27 0
-2 -27 0
87 46 0
-87 -46 0
96 30 0
-96 -30 0
16 18 0
-16 -18 0
121 108 0
-121 -108 0
51 36 0
-51 -36 0
113 78 0
-113 -78 0
60 106 0
-60 -106 0
116 49 0
-116 -49 0
85 26 0
-85 -26 0
87 23 0
-87 -23 0
120 129 0
-120 -129 0
133 118 0
-133 -118 0
59 11 0
-59 -11 0
104 139 0
-104 -139 0
21 18 0
-21 -18 0
110 123 0
-110 -123 0
66 3 0
-66 -3 0
73 40 0
-73 -40 0
136 129 0
-136 -129 0
87 1 0
-87 -1 0
8 25 0
-8 -25 0
59 136 0
-59 -136 0
8 36 0
-8 -36 0
112 64 0
-112 -64 0
73 112 0
-73 -112 0
68 6 0
-68 -6 0
85 36 0
-85 -36 0
50 124 0
-50 -124 0
29 64 0
-29 -64 0
88 55 0
-88 -55 0
18 119 0
-18 -119 0
7 91 0
-7 -91 0
38 15 0
-38 -15 0
73 24 0
-73 -24 0
60 80 0
-60 -80 0
58 3 0
-58 -3 0
135 114 0
-135 -114 0
87 15 0
-87 -15 0
83 41 0
-83 -41 0
125 111 0
-125 -111 0
52 35 0
-52 -35 0
87 114 0
-87 -114 0
69 113 0
-69 -113 0
60 136 0
-60 -136 0
90 27 0
-90 -27 0
120 111 0
-120 -111 0
52 26 0
-52 -26 0
63 111 0
-63 -111 0
140 78 0
-140 -78 0
23 8 0
-23 -8 0
68 48 0
-68 -48 0
140 16 0
-140 -16 0
6 36 0
-6 -36 0
5 88 0
-5 -88 0
104 22 0
-104 -22 0
30 81 0
-30 -81 0
127 26 0
-127 -26 0
10 33 0
-10 -33 0
129 49 0
-129 -49 0
84 81 0
-84 -81 0
130 86 0
-130 -86 0
42 74 0
-42 -74 0
10 49 0
-10 -49 0
130 70 0
-130 -70 0
46 55 0
-46 -55 0
88 8 0
-88 -8 0
2 12 0
-2 -12 0
62 13 0
-62 -13 0
73 27 0
-73 -27 0
128 80 0
-128 -80 0
51 17 0
-51 -17 0
104 70 0
-104 -70 0
27 55 0
-27 -55 0
132 116 0
-132 -116 0
68 108 0
-68 -108 0
68 51 0
-68 -51 0
57 2 0
-57 -2 0
136 38 0
-136 -38 0
44 126 0
-44 -126 0
136 89 0
-136 -89 0
89 14 0
-89 -14 0
83 26 0
-83 -26 0
7 49 0
-7 -49 0
52 11 0
-52 -11 0
62 109 0
-62 -109 0
6 80 0
-6 -80 0
105 55 0
-105 -55 0
92 33 0
-92 -33 0
123 76 0
-123 -76 0
95 131 0
-95 -131 0
130 36 0
-130 -36 0
67 68 0
-67 -68 0
110 58 0
-110 -58 0
21 50 0
-21 -50 0
29 18 0
-29 -18 0
96 95 0
-96 -95 0
83 105 0
-83 -105 0
105 86 0
-105 -86 0
111 74 0
-111 -74 0
94 119 0
-94 -119 0
104 115 0
-104 -115 0
9 24 0
-9 -24 0
20 28 0
-20 -28 0
135 22 0
-135 -22 0
50 98 0
-50 -98 0
7 119 0
-7 -119 0
123 80 0
-123 -80 0
60 14 0
-60 -14 0
98 56 0
-98 -56 0
57 49 0
-57 -49 0
23 118 0
-23 -118 0
87 136 0
-87 -136 0
110 35 0
-110 -35 0
134 8 0
-134 -8 0
50 71 0
-50 -71 0
133 102 0
-133 -102 0
13 118 0
-13 -118 0
126 11 0
-126 -11 0
18 58 0
-18 -58 0
5 70 0
-5 -70 0
80 34 0
-80 -34 0
16 108 0
-16 -108 0
37 134 0
-37 -134 0
18 74 0
-18 -74 0
13 90 0
-13 -90 0
62 134 0
-62 -134 0
71 64 0
-71 -64 0
91 46 0
-91 -46 0
52 115 0
-52 -115 0
2 46 0
-2 -46 0
24 54 0
-24 -54 0
85 70 0
-85 -70 0
82 118 0
-82 -118 0
133 23 0
-133 -23 0
51 99 0
-51 -99 0
86 129 0
-86 -129 0
39 42 0
-39 -42 0
44 78 0
-44 -78 0
109 139 0
-109 -139 0
44 53 0
-44 -53 0
111 129 0
-111 -129 0
1 114 0
-1 -114 0
52 131 0
-52 -131 0
130 28 0
-130 -28 0
56 26 0
-56 -26 0
107 91 0
-107 -91 0
135 57 0
-135 -57 0
75 41 0
-75 -41 0
22 86 0
-22 -86 0
72 99 0
-72 -99 0
100 87 0
-100 -87 0
98 38 0
-98 -38 0
122 47 0
-122 -47 0
93 30 0
-93 -30 0
44 50 0
-44 -50 0
4 48 0
-4 -48 0
65 69 0
-65 -69 0
122 53 0
-122 -53 0
102 118 0
-102 -118 0
101 49 0
-101 -49 0
107 40 0
-107 -40 0
57 61 0
-57 -61 0
84 76 0
-84 -76 0
100 90 0
-100 -90 0
10 99 0
-10 -99 0
116 106 0
-116 -106 0
59 23 0
-59 -23 0
116 27 0
-116 -27 0
97 64 0
-97 -64 0
130 42 0
-130 -42 0
129 46 0
-129 -46 0
37 127 0
-37 -127 0
5 76 0
-5 -76 0
20 12 0
-20 -12 0
128 63 0
-128 -63 0
101 95 0
-101 -95 0
6 45 0
-6 -45 0
1 56 0
-1 -56 0
127 122 0
-127 -122 0
124 98 0
-124 -98 0
75 121 0
-75 -121 0
105 89 0
-105 -89 0
5 132 0
-5 -132 0
67 119 0
-67 -119 0
51 77 0
-51 -77 0
76 8 0
-76 -8 0
95 12 0
-95 -12 0
64 15 0
-64 -15 0
59 79 0
-59 -79 0
120 64 0
-120 -64 0
116 131 0
-116 -131 0
76 95 0
-76 -95 0
65 71 0
-65 -71 0
44 98 0
-44 -98 0
51 81 0
-51 -81 0
84 108 0
-84 -108 0
140 27 0
-140 -27 0
10 26 0
-10 -26 0
76 111 0
-76 -111 0
136 80 0
-136 -80 0
92 129 0
-92 -129 0
8 3 0
-8 -3 0
5 10 0
-5 -10 0
37 57 0
-37 -57 0
100 49 0
-100 -49 0
38 64 0
-38 -64 0
52 78 0
-52 -78 0
40 81 0
-40 -81 0
72 57 0
-72 -57 0
13 55 0
-13 -55 0
132 76 0
-132 -76 0
87 8 0
-87 -8 0
66 120 0
-66 -120 0
68 102 0
-68 -102 0
32 112 0
-32 -112 0
107 55 0
-107 -55 0
32 135 0
-32 -135 0
119 79 0
-119 -79 0
124 6 0
-124 -6 0
103 8 0
-103 -8 0
32 131 0
-32 -131 0
4 2 0
-4 -2 0
69 96 0
-69 -96 0
1 25 0
-1 -25 0
123 64 0
-123 -64 0
94 26 0
-94 -26 0
59 134 0
-59 -134 0
9 29 0
-9 -29 0
8 17 0
-8 -17 0
122 42 0
-122 -42 0
96 138 0
-96 -138 0
44 56 0
-44 -56 0
96 126 0
-96 -126 0
48 11 0
-48 -11 0
68 34 0
-68 -34 0
5 27 0
-5 -27 0
53 3 0
-53 -3 0
106 123 0
-106 -123 0
50 116 0
-50 -116 0
122 120 0
-122 -120 0
78 46 0
-78 -46 0
10 66 0
-10 -66 0
37 31 0
-37 -31 0
83 89 0
-83 -89 0
97 43 0
-97 -43 0
100 77 0
-100 -77 0
75 117 0
-75 -117 0
66 45 0
-66 -45 0
127 54 0
-127 -54 0
62 110 0
-62 -110 0
65 107 0
-65 -107 0
107 38 0
-107 -38 0
28 102 0
-28 -102 0
50 85 0
-50 -85 0
119 36 0
-119 -36 0
10 122 0
-10 -122 0
130 58 0
-130 -58 0
1 128 0
-1 -128 0
32 55 0
-32 -55 0
26 49 0
-26 -49 0
130 99 0
-130 -99 0
32 64 0
-32 -64 0
38 131 0
-38 -131 0
68 115 0
-68 -115 0
21 83 0
-21 -83 0
39 7 0
-39 -7 0
8 91 0
-8 -91 0
101 15 0
-101 -15 0
130 77 0
-130 -77 0
10 91 0
-10 -91 0
93 129 0
-93 -129 0
93 71 0
-93 -71 0
136 6 0
-136 -6 0
108 46 0
-108 -46 0
109 42 0
-109 -42 0
139 112 0
-139 -112 0
73 70 0
-73 -70 0
50 40 0
-50 -40 0
11 129 0
-11 -129 0
19 123 0
-19 -123 0
54 88 0
-54 -88 0
87 40 0
-87 -40 0
140 103 0
-140 -103 0
58 115 0
-58 -115 0
51 123 0
-51 -123 0
105 113 0
-105 -113 0
20 95 0
-20 -95 0
101 38 0
-101 -38 0
9 115 0
-9 -115 0
125 42 0
-125 -42 0
98 117 0
-98 -117 0
32 107 0
-32 -107 0
37 64 0
-37 -64 0
138 126 0
-138 -126 0
40 89 0
-40 -89 0
69 137 0
-69 -137 0
59 64 0
-59 -64 0
137 25 0
-137 -25 0
6 48 0
-6 -48 0
79 114 0
-79 -114 0
65 139 0
-65 -139 0
10 19 0
-10 -19 0
76 49 0
-76 -49 0
40 137 0
-40 -137 0
11 14 0
-11 -14 0
58 76 0
-58 -76 0
112 35 0
-112 -35 0
16 84 0
-16 -84 0
44 75 0
-44 -75 0
134 96 0
-134 -96 0
118 11 0
-118 -11 0
108 95 0
-108 -95 0
104 4 0
-104 -4 0
13 24 0
-13 -24 0
126 26 0
-126 -26 0
72 66 0
-72 -66 0
96 12 0
-96 -12 0
60 8 0
-60 -8 0
101 128 0
-101 -128 0
135 123 0
-135 -123 0
44 51 0
-44 -51 0
134 108 0
-134 -108 0
33 131 0
-33 -131 0
67 138 0
-67 -138 0
102 17 0
-102 -17 0
133 108 0
-133 -108 0
116 36 0
-116 -36 0
118 14 0
-118 -14 0
119 131 0
-119 -131 0
112 99 0
-112 -99 0
42 88 0
-42 -88 0
133 111 0
-133 -111 0
110 20 0
-110 -20 0
93 4 0
-93 -4 0
102 8 0
-102 -8 0
30 27 0
-30 -27 0
127 72 0
-127 -72 0
140 136 0
-140 -136 0
72 113 0
-72 -113 0
103 117 0
-103 -117 0
133 17 0
-133 -17 0
90 86 0
-90 -86 0
105 43 0
-105 -43 0
135 58 0
-135 -58 0
6 34 0
-6 -34 0
52 72 0
-52 -72 0
44 2 0
-44 -2 0
63 114 0
-63 -114 0
